NAME          
ROWS
 N  OBJ
 L  c1
 L  c2
 L  c3
COLUMNS
    MARKER    'MARKER'                 'INTORG'
    x[1]      c1        987
    x[1]      c2        383
    x[1]      c3        611
    x[1]      OBJ       -623
    x[2]      c1        1000
    x[2]      c2        524
    x[2]      c3        596
    x[2]      OBJ       -258
    x[3]      c1        886
    x[3]      c2        836
    x[3]      c3        756
    x[3]      OBJ       -560
    x[4]      c1        15
    x[4]      c2        550
    x[4]      c3        526
    x[4]      OBJ       -790
    x[5]      c1        569
    x[5]      c2        341
    x[5]      c3        349
    x[5]      OBJ       -704
    x[6]      c1        823
    x[6]      c2        994
    x[6]      c3        589
    x[6]      OBJ       -556
    x[7]      c1        651
    x[7]      c2        900
    x[7]      c3        163
    x[7]      OBJ       -330
    x[8]      c1        168
    x[8]      c2        310
    x[8]      c3        591
    x[8]      OBJ       -355
    x[9]      c1        732
    x[9]      c2        65
    x[9]      c3        620
    x[9]      OBJ       -432
    x[10]     c1        419
    x[10]     c2        113
    x[10]     c3        430
    x[10]     OBJ       -65
    x[11]     c1        598
    x[11]     c2        796
    x[11]     c3        305
    x[11]     OBJ       -812
    x[12]     c1        202
    x[12]     c2        299
    x[12]     c3        715
    x[12]     OBJ       -834
    x[13]     c1        712
    x[13]     c2        627
    x[13]     c3        640
    x[13]     OBJ       -876
    x[14]     c1        914
    x[14]     c2        204
    x[14]     c3        942
    x[14]     OBJ       -783
    x[15]     c1        126
    x[15]     c2        754
    x[15]     c3        797
    x[15]     OBJ       -894
    x[16]     c1        787
    x[16]     c2        790
    x[16]     c3        948
    x[16]     OBJ       -684
    x[17]     c1        94
    x[17]     c2        41
    x[17]     c3        960
    x[17]     OBJ       -350
    x[18]     c1        146
    x[18]     c2        973
    x[18]     c3        558
    x[18]     OBJ       -554
    x[19]     c1        332
    x[19]     c2        56
    x[19]     c3        46
    x[19]     OBJ       -270
    x[20]     c1        473
    x[20]     c2        350
    x[20]     c3        885
    x[20]     OBJ       -530
    x[21]     c1        184
    x[21]     c2        16
    x[21]     c3        853
    x[21]     OBJ       -142
    x[22]     c1        467
    x[22]     c2        95
    x[22]     c3        71
    x[22]     OBJ       -157
    x[23]     c1        29
    x[23]     c2        484
    x[23]     c3        452
    x[23]     OBJ       -837
    x[24]     c1        515
    x[24]     c2        955
    x[24]     c3        193
    x[24]     OBJ       -149
    x[25]     c1        758
    x[25]     c2        883
    x[25]     c3        734
    x[25]     OBJ       -2
    x[26]     c1        485
    x[26]     c2        584
    x[26]     c3        107
    x[26]     OBJ       -866
    x[27]     c1        828
    x[27]     c2        716
    x[27]     c3        667
    x[27]     OBJ       -783
    x[28]     c1        195
    x[28]     c2        739
    x[28]     c3        330
    x[28]     OBJ       -417
    x[29]     c1        709
    x[29]     c2        989
    x[29]     c3        651
    x[29]     OBJ       -401
    x[30]     c1        532
    x[30]     c2        208
    x[30]     c3        397
    x[30]     OBJ       -317
    x[31]     c1        978
    x[31]     c2        945
    x[31]     c3        767
    x[31]     OBJ       -863
    x[32]     c1        322
    x[32]     c2        510
    x[32]     c3        411
    x[32]     OBJ       -502
    x[33]     c1        16
    x[33]     c2        981
    x[33]     c3        410
    x[33]     OBJ       -623
    x[34]     c1        196
    x[34]     c2        95
    x[34]     c3        932
    x[34]     OBJ       -337
    x[35]     c1        280
    x[35]     c2        302
    x[35]     c3        608
    x[35]     OBJ       -270
    x[36]     c1        115
    x[36]     c2        940
    x[36]     c3        89
    x[36]     OBJ       -666
    x[37]     c1        799
    x[37]     c2        986
    x[37]     c3        685
    x[37]     OBJ       -636
    x[38]     c1        776
    x[38]     c2        381
    x[38]     c3        420
    x[38]     OBJ       -712
    x[39]     c1        881
    x[39]     c2        382
    x[39]     c3        337
    x[39]     OBJ       -816
    x[40]     c1        697
    x[40]     c2        277
    x[40]     c3        214
    x[40]     OBJ       -959
    x[41]     c1        773
    x[41]     c2        989
    x[41]     c3        655
    x[41]     OBJ       -942
    x[42]     c1        154
    x[42]     c2        697
    x[42]     c3        336
    x[42]     OBJ       -531
    x[43]     c1        563
    x[43]     c2        311
    x[43]     c3        157
    x[43]     OBJ       -44
    x[44]     c1        165
    x[44]     c2        446
    x[44]     c3        696
    x[44]     OBJ       -11
    x[45]     c1        403
    x[45]     c2        327
    x[45]     c3        600
    x[45]     OBJ       -415
RHS
    rhs       c1        11227
    rhs       c2        12072
    rhs       c3        11900
RANGES
BOUNDS
 BV bounds    x[1]
 BV bounds    x[2]
 BV bounds    x[3]
 BV bounds    x[4]
 BV bounds    x[5]
 BV bounds    x[6]
 BV bounds    x[7]
 BV bounds    x[8]
 BV bounds    x[9]
 BV bounds    x[10]
 BV bounds    x[11]
 BV bounds    x[12]
 BV bounds    x[13]
 BV bounds    x[14]
 BV bounds    x[15]
 BV bounds    x[16]
 BV bounds    x[17]
 BV bounds    x[18]
 BV bounds    x[19]
 BV bounds    x[20]
 BV bounds    x[21]
 BV bounds    x[22]
 BV bounds    x[23]
 BV bounds    x[24]
 BV bounds    x[25]
 BV bounds    x[26]
 BV bounds    x[27]
 BV bounds    x[28]
 BV bounds    x[29]
 BV bounds    x[30]
 BV bounds    x[31]
 BV bounds    x[32]
 BV bounds    x[33]
 BV bounds    x[34]
 BV bounds    x[35]
 BV bounds    x[36]
 BV bounds    x[37]
 BV bounds    x[38]
 BV bounds    x[39]
 BV bounds    x[40]
 BV bounds    x[41]
 BV bounds    x[42]
 BV bounds    x[43]
 BV bounds    x[44]
 BV bounds    x[45]
ENDATA
